TCS_Benchmarks/redos_fix/snort1_output_distinct_2447_2446_1_0.txt
[^\n\r]*
([^\n\r]*)([aA]-[sS][pP][yY])([^\n\r]*)
[^\n\r]*